c turning on binary mode checking
c parsing input formula with 259840 variables and 1039934 clauses
c finished parsing, read 3403637 bytes from proof file
c detected empty clause; start verification via backward checking
c 6270 of 1039934 clauses in core                            
c 2108 of 129067 lemmas in core using 53592 resolution steps
c 0 RAT lemmas in core; 334 redundant literals in core lemmas
s VERIFIED
c verification time: 1.423 seconds
